
<<< setup


<<< generate

Version identifier: 22.1.1.0 | 2022-11-28 | 9160aff4d
CPXPARAM_TimeLimit                               1800
Found incumbent of value 0.000000 after 0.01 sec. (11.04 ticks)
Tried aggregator 3 times.
Aggregator has done 1660 substitutions...
MIP Presolve eliminated 1361495 rows and 7683 columns.
MIP Presolve modified 12904 coefficients.
Aggregator did 1660 substitutions.
Reduced MIP has 342250 rows, 41857 columns, and 1451568 nonzeros.
Reduced MIP has 41857 binaries, 0 generals, 0 SOSs, and 0 indicators.
Presolve time = 11.95 sec. (34398.83 ticks)
Probing time = 0.09 sec. (57.55 ticks)
Tried aggregator 3 times.
MIP Presolve eliminated 584 rows and 6 columns.
MIP Presolve modified 6 coefficients.
Aggregator did 12901 substitutions.
Reduced MIP has 328765 rows, 28950 columns, and 1417882 nonzeros.
Reduced MIP has 28950 binaries, 0 generals, 0 SOSs, and 0 indicators.
Presolve time = 1.23 sec. (2989.35 ticks)
Probing time = 0.08 sec. (52.84 ticks)
Tried aggregator 1 time.
Detecting symmetries...
MIP Presolve eliminated 2 rows and 0 columns.
Reduced MIP has 328763 rows, 28950 columns, and 1417822 nonzeros.
Reduced MIP has 28950 binaries, 0 generals, 0 SOSs, and 0 indicators.
Presolve time = 0.87 sec. (2100.08 ticks)
Probing time = 0.09 sec. (51.50 ticks)
Clique table members: 365648.
MIP emphasis: balance optimality and feasibility.
MIP search method: dynamic search.
Parallel mode: deterministic, using up to 8 threads.
Root relaxation solution time = 416.93 sec. (397827.39 ticks)

        Nodes                                         Cuts/
   Node  Left     Objective  IInf  Best Integer    Best Bound    ItCnt     Gap

*     0+    0                            0.0000    30700.0000              --- 
*     0+    0                           25.0000    30700.0000              --- 
*     0+    0                           26.0000    30700.0000              --- 
      0     0       30.0000  7496       26.0000       30.0000   140079   15.38%
      0     0       30.0000  6104       26.0000  Cliques: 201   159634   15.38%
      0     0       30.0000  4674       26.0000  Cliques: 776   187863   15.38%
*     0+    0                           29.0000       30.0000             3.45%
      0     0       30.0000  4446       29.0000  Cliques: 748   244674    3.45%

Clique cuts applied:  2615
Zero-half cuts applied:  3

Root node processing (before b&c):
  Real time             = 1800.09 sec. (1921416.59 ticks)
Parallel b&c, 8 threads:
  Real time             =    0.00 sec. (0.00 ticks)
  Sync time (average)   =    0.00 sec.
  Wait time (average)   =    0.00 sec.
                          ------------
Total (root+branch&cut) = 1800.09 sec. (1921416.59 ticks)

<<< solve


OBJECTIVE: 29

<<< post process


<<< done

